p cnf 8 27
2 0
-8 2 -6 0
1 4 6 0
-4 5 6 0
1 -5 4 -1 0
-7 -2 -1 6 0
5 -1 0
5 0
-8 8 3 -4 0
-7 3 4 6 0
8 0
3 -3 -2 6 0
-3 0
-7 6 0
-2 0
-8 1 8 0
8 1 0
5 0
3 -1 0
8 2 5 7 0
-3 0
-7 4 0
-4 4 -2 0
-7 -6 7 0
-8 8 2 -1 0
2 -4 0
-2 0
